language ESSENCE' 1.b.a

parameter ppsize is 3
parameter cppsize is 3
parameter desiredsize is 4
parameter tpr is 4
parameter weight is 2
parameter rounds is 3

parameter pp is  [
	[0,1,1,1],
	[1,0,1,1],
	[1,1,1,0]
	]

parameter cpp is [
	[0,1,1,1],
	[1,0,1,1],
	[1,1,0,1]
	]
